* #variable= 889 #constraint= 1201 
+1 x23 -1 x144 = 0 ;
+1 x24 -1 x146 = 0 ;
+1 x25 -1 x149 = 0 ;
+1 x26 -1 x153 = 0 ;
+1 x27 -1 x158 = 0 ;
+1 x28 -1 x164 = 0 ;
+1 x29 -1 x171 = 0 ;
+1 x30 -1 x179 = 0 ;
+1 x31 -1 x188 = 0 ;
+1 x32 -1 x198 = 0 ;
+1 x33 -1 x209 = 0 ;
+1 x34 -1 x145 = 0 ;
+1 x35 -1 x148 = 0 ;
+1 x36 -1 x152 = 0 ;
+1 x37 -1 x157 = 0 ;
+1 x38 -1 x163 = 0 ;
+1 x39 -1 x170 = 0 ;
+1 x40 -1 x178 = 0 ;
+1 x41 -1 x187 = 0 ;
+1 x42 -1 x197 = 0 ;
+1 x43 -1 x208 = 0 ;
+1 x44 -1 x219 = 0 ;
+1 x45 -1 x147 = 0 ;
+1 x46 -1 x151 = 0 ;
+1 x47 -1 x156 = 0 ;
+1 x48 -1 x162 = 0 ;
+1 x49 -1 x169 = 0 ;
+1 x50 -1 x177 = 0 ;
+1 x51 -1 x186 = 0 ;
+1 x52 -1 x196 = 0 ;
+1 x53 -1 x207 = 0 ;
+1 x54 -1 x218 = 0 ;
+1 x55 -1 x228 = 0 ;
+1 x56 -1 x150 = 0 ;
+1 x57 -1 x155 = 0 ;
+1 x58 -1 x161 = 0 ;
+1 x59 -1 x168 = 0 ;
+1 x60 -1 x176 = 0 ;
+1 x61 -1 x185 = 0 ;
+1 x62 -1 x195 = 0 ;
+1 x63 -1 x206 = 0 ;
+1 x64 -1 x217 = 0 ;
+1 x65 -1 x227 = 0 ;
+1 x66 -1 x236 = 0 ;
+1 x67 -1 x154 = 0 ;
+1 x68 -1 x160 = 0 ;
+1 x69 -1 x167 = 0 ;
+1 x70 -1 x175 = 0 ;
+1 x71 -1 x184 = 0 ;
+1 x72 -1 x194 = 0 ;
+1 x73 -1 x205 = 0 ;
+1 x74 -1 x216 = 0 ;
+1 x75 -1 x226 = 0 ;
+1 x76 -1 x235 = 0 ;
+1 x77 -1 x243 = 0 ;
+1 x78 -1 x159 = 0 ;
+1 x79 -1 x166 = 0 ;
+1 x80 -1 x174 = 0 ;
+1 x81 -1 x183 = 0 ;
+1 x82 -1 x193 = 0 ;
+1 x83 -1 x204 = 0 ;
+1 x84 -1 x215 = 0 ;
+1 x85 -1 x225 = 0 ;
+1 x86 -1 x234 = 0 ;
+1 x87 -1 x242 = 0 ;
+1 x88 -1 x249 = 0 ;
+1 x89 -1 x165 = 0 ;
+1 x90 -1 x173 = 0 ;
+1 x91 -1 x182 = 0 ;
+1 x92 -1 x192 = 0 ;
+1 x93 -1 x203 = 0 ;
+1 x94 -1 x214 = 0 ;
+1 x95 -1 x224 = 0 ;
+1 x96 -1 x233 = 0 ;
+1 x97 -1 x241 = 0 ;
+1 x98 -1 x248 = 0 ;
+1 x99 -1 x254 = 0 ;
+1 x100 -1 x172 = 0 ;
+1 x101 -1 x181 = 0 ;
+1 x102 -1 x191 = 0 ;
+1 x103 -1 x202 = 0 ;
+1 x104 -1 x213 = 0 ;
+1 x105 -1 x223 = 0 ;
+1 x106 -1 x232 = 0 ;
+1 x107 -1 x240 = 0 ;
+1 x108 -1 x247 = 0 ;
+1 x109 -1 x253 = 0 ;
+1 x110 -1 x258 = 0 ;
+1 x111 -1 x180 = 0 ;
+1 x112 -1 x190 = 0 ;
+1 x113 -1 x201 = 0 ;
+1 x114 -1 x212 = 0 ;
+1 x115 -1 x222 = 0 ;
+1 x116 -1 x231 = 0 ;
+1 x117 -1 x239 = 0 ;
+1 x118 -1 x246 = 0 ;
+1 x119 -1 x252 = 0 ;
+1 x120 -1 x257 = 0 ;
+1 x121 -1 x261 = 0 ;
+1 x122 -1 x189 = 0 ;
+1 x123 -1 x200 = 0 ;
+1 x124 -1 x211 = 0 ;
+1 x125 -1 x221 = 0 ;
+1 x126 -1 x230 = 0 ;
+1 x127 -1 x238 = 0 ;
+1 x128 -1 x245 = 0 ;
+1 x129 -1 x251 = 0 ;
+1 x130 -1 x256 = 0 ;
+1 x131 -1 x260 = 0 ;
+1 x132 -1 x263 = 0 ;
+1 x133 -1 x199 = 0 ;
+1 x134 -1 x210 = 0 ;
+1 x135 -1 x220 = 0 ;
+1 x136 -1 x229 = 0 ;
+1 x137 -1 x237 = 0 ;
+1 x138 -1 x244 = 0 ;
+1 x139 -1 x250 = 0 ;
+1 x140 -1 x255 = 0 ;
+1 x141 -1 x259 = 0 ;
+1 x142 -1 x262 = 0 ;
+1 x143 -1 x264 = 0 ;
+2 x823 +1 x845 -1 x516 -1 x798 = 0 ;
+2 x824 +1 x846 -1 x517 -1 x823 -1 x799 = 0 ;
+2 x825 +1 x847 -1 x518 -1 x824 -1 x800 = 0 ;
+2 x826 +1 x848 -1 x519 -1 x825 -1 x801 = 0 ;
+2 x827 +1 x849 -1 x520 -1 x826 -1 x802 = 0 ;
+2 x828 +1 x850 -1 x522 -1 x827 -1 x803 = 0 ;
+2 x829 +1 x851 -1 x524 -1 x828 -1 x521 = 0 ;
+2 x830 +1 x852 -1 x526 -1 x829 -1 x523 = 0 ;
+2 x831 +1 x853 -1 x528 -1 x830 -1 x525 = 0 ;
+2 x832 +1 x854 -1 x530 -1 x831 -1 x527 = 0 ;
+2 x833 +1 x855 -1 x532 -1 x832 -1 x529 = 0 ;
+2 x834 +1 x856 -1 x534 -1 x833 -1 x531 = 0 ;
+2 x835 +1 x857 -1 x536 -1 x834 -1 x533 = 0 ;
+2 x836 +1 x858 -1 x538 -1 x835 -1 x535 = 0 ;
+2 x837 +1 x859 -1 x540 -1 x836 -1 x537 = 0 ;
+2 x838 +1 x860 -1 x542 -1 x837 -1 x539 = 0 ;
+2 x839 +1 x861 -1 x544 -1 x838 -1 x541 = 0 ;
+2 x840 +1 x862 -1 x546 -1 x839 -1 x543 = 0 ;
+2 x841 +1 x863 -1 x548 -1 x840 -1 x545 = 0 ;
+2 x842 +1 x864 -1 x550 -1 x841 -1 x547 = 0 ;
+2 x843 +1 x865 -1 x552 -1 x842 -1 x549 = 0 ;
+2 x844 +1 x866 -1 x554 -1 x843 -1 x551 = 0 ;
+1 x844 -1 x867 = 0 ;
-1 x23 +1 x1 >= 0 ;
-1 x23 +1 x12 >= 0 ;
+1 x23 -1 x1 -1 x12 >= -1 ;
+1 x677 -1 x23 = 0 ;
+1 x677 -1 x868 = 0 ;
+1 x798 = 0 ;
-1 x144 +1 x1 >= 0 ;
-1 x144 +1 x12 >= 0 ;
+1 x144 -1 x1 -1 x12 >= -1 ;
+1 x144 -1 x265 = 0 ;
+1 x265 -1 x353 = 0 ;
+1 x353 -1 x419 = 0 ;
+1 x419 -1 x472 = 0 ;
+1 x472 -1 x516 = 0 ;
+1 x868 -1 x845 +2 x869 -2 x846 +4 x870 -4 x847 +8 x871 -8 x848 +16 x872 -16 x849 +32 x873 -32 x850 +64 x874 -64 x851 +128 x875 -128 x852 +256 x876 -256 x853 +512 x877 -512 x854 +1024 x878 -1024 x855 +2048 x879 -2048 x856 +4096 x880 -4096 x857 +8192 x881 -8192 x858 +16384 x882 -16384 x859 +32768 x883 -32768 x860 +65536 x884 -65536 x861 +131072 x885 -131072 x862 +262144 x886 -262144 x863 +524288 x887 -524288 x864 +1048576 x888 -1048576 x865 +2097152 x889 -2097152 x866 >= 1 ;
-1 x34 +1 x2 >= 0 ;
-1 x34 +1 x12 >= 0 ;
+1 x34 -1 x2 -1 x12 >= -1 ;
-1 x24 +1 x1 >= 0 ;
-1 x24 +1 x13 >= 0 ;
+1 x24 -1 x1 -1 x13 >= -1 ;
+1 x688 -1 x34 = 0 ;
+2 x557 +1 x678 -1 x24 -1 x688 = 0 ;
+1 x678 -1 x869 = 0 ;
+1 x799 = 0 ;
-1 x146 +1 x1 >= 0 ;
-1 x146 +1 x13 >= 0 ;
+1 x146 -1 x1 -1 x13 >= -1 ;
-1 x145 +1 x2 >= 0 ;
-1 x145 +1 x12 >= 0 ;
+1 x145 -1 x2 -1 x12 >= -1 ;
+2 x266 +1 x267 -1 x146 -1 x145 = 0 ;
+1 x267 -1 x354 = 0 ;
+1 x354 -1 x420 = 0 ;
+1 x420 -1 x473 = 0 ;
+1 x473 -1 x517 = 0 ;
-1 x45 +1 x3 >= 0 ;
-1 x45 +1 x12 >= 0 ;
+1 x45 -1 x3 -1 x12 >= -1 ;
-1 x35 +1 x2 >= 0 ;
-1 x35 +1 x13 >= 0 ;
+1 x35 -1 x2 -1 x13 >= -1 ;
-1 x25 +1 x1 >= 0 ;
-1 x25 +1 x14 >= 0 ;
+1 x25 -1 x1 -1 x14 >= -1 ;
+1 x699 -1 x45 = 0 ;
+2 x568 +1 x689 -1 x35 -1 x557 -1 x699 = 0 ;
+2 x558 +1 x679 -1 x25 -1 x689 = 0 ;
+1 x679 -1 x870 = 0 ;
+1 x800 = 0 ;
-1 x149 +1 x1 >= 0 ;
-1 x149 +1 x14 >= 0 ;
+1 x149 -1 x1 -1 x14 >= -1 ;
-1 x148 +1 x2 >= 0 ;
-1 x148 +1 x13 >= 0 ;
+1 x148 -1 x2 -1 x13 >= -1 ;
-1 x147 +1 x3 >= 0 ;
-1 x147 +1 x12 >= 0 ;
+1 x147 -1 x3 -1 x12 >= -1 ;
+2 x268 +1 x269 -1 x149 -1 x147 -1 x148 = 0 ;
+2 x355 +1 x356 -1 x266 -1 x269 = 0 ;
+1 x356 -1 x421 = 0 ;
+1 x421 -1 x474 = 0 ;
+1 x474 -1 x518 = 0 ;
-1 x56 +1 x4 >= 0 ;
-1 x56 +1 x12 >= 0 ;
+1 x56 -1 x4 -1 x12 >= -1 ;
-1 x46 +1 x3 >= 0 ;
-1 x46 +1 x13 >= 0 ;
+1 x46 -1 x3 -1 x13 >= -1 ;
-1 x36 +1 x2 >= 0 ;
-1 x36 +1 x14 >= 0 ;
+1 x36 -1 x2 -1 x14 >= -1 ;
-1 x26 +1 x1 >= 0 ;
-1 x26 +1 x15 >= 0 ;
+1 x26 -1 x1 -1 x15 >= -1 ;
+1 x710 -1 x56 = 0 ;
+2 x579 +1 x700 -1 x46 -1 x568 -1 x710 = 0 ;
+2 x569 +1 x690 -1 x36 -1 x558 -1 x700 = 0 ;
+2 x559 +1 x680 -1 x26 -1 x690 = 0 ;
+1 x680 -1 x871 = 0 ;
+1 x801 = 0 ;
-1 x153 +1 x1 >= 0 ;
-1 x153 +1 x15 >= 0 ;
+1 x153 -1 x1 -1 x15 >= -1 ;
-1 x152 +1 x2 >= 0 ;
-1 x152 +1 x14 >= 0 ;
+1 x152 -1 x2 -1 x14 >= -1 ;
-1 x151 +1 x3 >= 0 ;
-1 x151 +1 x13 >= 0 ;
+1 x151 -1 x3 -1 x13 >= -1 ;
-1 x150 +1 x4 >= 0 ;
-1 x150 +1 x12 >= 0 ;
+1 x150 -1 x4 -1 x12 >= -1 ;
+2 x270 +1 x271 -1 x152 -1 x150 -1 x151 = 0 ;
+1 x153 -1 x305 = 0 ;
+2 x357 +1 x358 -1 x305 -1 x271 -1 x268 = 0 ;
+2 x422 +1 x423 -1 x355 -1 x358 = 0 ;
+1 x423 -1 x475 = 0 ;
+1 x475 -1 x519 = 0 ;
-1 x67 +1 x5 >= 0 ;
-1 x67 +1 x12 >= 0 ;
+1 x67 -1 x5 -1 x12 >= -1 ;
-1 x57 +1 x4 >= 0 ;
-1 x57 +1 x13 >= 0 ;
+1 x57 -1 x4 -1 x13 >= -1 ;
-1 x47 +1 x3 >= 0 ;
-1 x47 +1 x14 >= 0 ;
+1 x47 -1 x3 -1 x14 >= -1 ;
-1 x37 +1 x2 >= 0 ;
-1 x37 +1 x15 >= 0 ;
+1 x37 -1 x2 -1 x15 >= -1 ;
-1 x27 +1 x1 >= 0 ;
-1 x27 +1 x16 >= 0 ;
+1 x27 -1 x1 -1 x16 >= -1 ;
+1 x721 -1 x67 = 0 ;
+2 x590 +1 x711 -1 x57 -1 x579 -1 x721 = 0 ;
+2 x580 +1 x701 -1 x47 -1 x569 -1 x711 = 0 ;
+2 x570 +1 x691 -1 x37 -1 x559 -1 x701 = 0 ;
+2 x560 +1 x681 -1 x27 -1 x691 = 0 ;
+1 x681 -1 x872 = 0 ;
+1 x802 = 0 ;
-1 x158 +1 x1 >= 0 ;
-1 x158 +1 x16 >= 0 ;
+1 x158 -1 x1 -1 x16 >= -1 ;
-1 x157 +1 x2 >= 0 ;
-1 x157 +1 x15 >= 0 ;
+1 x157 -1 x2 -1 x15 >= -1 ;
-1 x156 +1 x3 >= 0 ;
-1 x156 +1 x14 >= 0 ;
+1 x156 -1 x3 -1 x14 >= -1 ;
-1 x155 +1 x4 >= 0 ;
-1 x155 +1 x13 >= 0 ;
+1 x155 -1 x4 -1 x13 >= -1 ;
-1 x154 +1 x5 >= 0 ;
-1 x154 +1 x12 >= 0 ;
+1 x154 -1 x5 -1 x12 >= -1 ;
+2 x272 +1 x273 -1 x156 -1 x154 -1 x155 = 0 ;
+2 x306 +1 x307 -1 x158 -1 x157 = 0 ;
+2 x359 +1 x360 -1 x307 -1 x273 -1 x270 = 0 ;
+2 x424 +1 x425 -1 x357 -1 x360 = 0 ;
+2 x476 +1 x477 -1 x422 -1 x425 = 0 ;
+1 x477 -1 x520 = 0 ;
-1 x78 +1 x6 >= 0 ;
-1 x78 +1 x12 >= 0 ;
+1 x78 -1 x6 -1 x12 >= -1 ;
-1 x68 +1 x5 >= 0 ;
-1 x68 +1 x13 >= 0 ;
+1 x68 -1 x5 -1 x13 >= -1 ;
-1 x58 +1 x4 >= 0 ;
-1 x58 +1 x14 >= 0 ;
+1 x58 -1 x4 -1 x14 >= -1 ;
-1 x48 +1 x3 >= 0 ;
-1 x48 +1 x15 >= 0 ;
+1 x48 -1 x3 -1 x15 >= -1 ;
-1 x38 +1 x2 >= 0 ;
-1 x38 +1 x16 >= 0 ;
+1 x38 -1 x2 -1 x16 >= -1 ;
-1 x28 +1 x1 >= 0 ;
-1 x28 +1 x17 >= 0 ;
+1 x28 -1 x1 -1 x17 >= -1 ;
+1 x732 -1 x78 = 0 ;
+2 x601 +1 x722 -1 x68 -1 x590 -1 x732 = 0 ;
+2 x591 +1 x712 -1 x58 -1 x580 -1 x722 = 0 ;
+2 x581 +1 x702 -1 x48 -1 x570 -1 x712 = 0 ;
+2 x571 +1 x692 -1 x38 -1 x560 -1 x702 = 0 ;
+2 x561 +1 x682 -1 x28 -1 x692 = 0 ;
+1 x682 -1 x873 = 0 ;
+1 x803 = 0 ;
-1 x164 +1 x1 >= 0 ;
-1 x164 +1 x17 >= 0 ;
+1 x164 -1 x1 -1 x17 >= -1 ;
-1 x163 +1 x2 >= 0 ;
-1 x163 +1 x16 >= 0 ;
+1 x163 -1 x2 -1 x16 >= -1 ;
-1 x162 +1 x3 >= 0 ;
-1 x162 +1 x15 >= 0 ;
+1 x162 -1 x3 -1 x15 >= -1 ;
-1 x161 +1 x4 >= 0 ;
-1 x161 +1 x14 >= 0 ;
+1 x161 -1 x4 -1 x14 >= -1 ;
-1 x160 +1 x5 >= 0 ;
-1 x160 +1 x13 >= 0 ;
+1 x160 -1 x5 -1 x13 >= -1 ;
-1 x159 +1 x6 >= 0 ;
-1 x159 +1 x12 >= 0 ;
+1 x159 -1 x6 -1 x12 >= -1 ;
+2 x274 +1 x275 -1 x161 -1 x159 -1 x160 = 0 ;
+2 x308 +1 x309 -1 x164 -1 x162 -1 x163 = 0 ;
+2 x361 +1 x362 -1 x309 -1 x275 -1 x272 = 0 ;
+1 x306 -1 x393 = 0 ;
+2 x426 +1 x427 -1 x393 -1 x362 -1 x359 = 0 ;
+2 x478 +1 x479 -1 x424 -1 x427 = 0 ;
+2 x521 +1 x522 -1 x476 -1 x479 = 0 ;
-1 x89 +1 x7 >= 0 ;
-1 x89 +1 x12 >= 0 ;
+1 x89 -1 x7 -1 x12 >= -1 ;
-1 x79 +1 x6 >= 0 ;
-1 x79 +1 x13 >= 0 ;
+1 x79 -1 x6 -1 x13 >= -1 ;
-1 x69 +1 x5 >= 0 ;
-1 x69 +1 x14 >= 0 ;
+1 x69 -1 x5 -1 x14 >= -1 ;
-1 x59 +1 x4 >= 0 ;
-1 x59 +1 x15 >= 0 ;
+1 x59 -1 x4 -1 x15 >= -1 ;
-1 x49 +1 x3 >= 0 ;
-1 x49 +1 x16 >= 0 ;
+1 x49 -1 x3 -1 x16 >= -1 ;
-1 x39 +1 x2 >= 0 ;
-1 x39 +1 x17 >= 0 ;
+1 x39 -1 x2 -1 x17 >= -1 ;
-1 x29 +1 x1 >= 0 ;
-1 x29 +1 x18 >= 0 ;
+1 x29 -1 x1 -1 x18 >= -1 ;
+1 x743 -1 x89 = 0 ;
+2 x612 +1 x733 -1 x79 -1 x601 -1 x743 = 0 ;
+2 x602 +1 x723 -1 x69 -1 x591 -1 x733 = 0 ;
+2 x592 +1 x713 -1 x59 -1 x581 -1 x723 = 0 ;
+2 x582 +1 x703 -1 x49 -1 x571 -1 x713 = 0 ;
+2 x572 +1 x693 -1 x39 -1 x561 -1 x703 = 0 ;
+2 x562 +1 x683 -1 x29 -1 x693 = 0 ;
+1 x683 -1 x874 = 0 ;
+1 x804 = 0 ;
-1 x171 +1 x1 >= 0 ;
-1 x171 +1 x18 >= 0 ;
+1 x171 -1 x1 -1 x18 >= -1 ;
-1 x170 +1 x2 >= 0 ;
-1 x170 +1 x17 >= 0 ;
+1 x170 -1 x2 -1 x17 >= -1 ;
-1 x169 +1 x3 >= 0 ;
-1 x169 +1 x16 >= 0 ;
+1 x169 -1 x3 -1 x16 >= -1 ;
-1 x168 +1 x4 >= 0 ;
-1 x168 +1 x15 >= 0 ;
+1 x168 -1 x4 -1 x15 >= -1 ;
-1 x167 +1 x5 >= 0 ;
-1 x167 +1 x14 >= 0 ;
+1 x167 -1 x5 -1 x14 >= -1 ;
-1 x166 +1 x6 >= 0 ;
-1 x166 +1 x13 >= 0 ;
+1 x166 -1 x6 -1 x13 >= -1 ;
-1 x165 +1 x7 >= 0 ;
-1 x165 +1 x12 >= 0 ;
+1 x165 -1 x7 -1 x12 >= -1 ;
+2 x276 +1 x277 -1 x167 -1 x165 -1 x166 = 0 ;
+2 x310 +1 x311 -1 x170 -1 x168 -1 x169 = 0 ;
+1 x171 -1 x333 = 0 ;
+2 x363 +1 x364 -1 x311 -1 x277 -1 x274 = 0 ;
+2 x394 +1 x395 -1 x333 -1 x308 = 0 ;
+2 x428 +1 x429 -1 x395 -1 x364 -1 x361 = 0 ;
+2 x480 +1 x481 -1 x426 -1 x429 = 0 ;
+2 x523 +1 x524 -1 x478 -1 x481 = 0 ;
-1 x100 +1 x8 >= 0 ;
-1 x100 +1 x12 >= 0 ;
+1 x100 -1 x8 -1 x12 >= -1 ;
-1 x90 +1 x7 >= 0 ;
-1 x90 +1 x13 >= 0 ;
+1 x90 -1 x7 -1 x13 >= -1 ;
-1 x80 +1 x6 >= 0 ;
-1 x80 +1 x14 >= 0 ;
+1 x80 -1 x6 -1 x14 >= -1 ;
-1 x70 +1 x5 >= 0 ;
-1 x70 +1 x15 >= 0 ;
+1 x70 -1 x5 -1 x15 >= -1 ;
-1 x60 +1 x4 >= 0 ;
-1 x60 +1 x16 >= 0 ;
+1 x60 -1 x4 -1 x16 >= -1 ;
-1 x50 +1 x3 >= 0 ;
-1 x50 +1 x17 >= 0 ;
+1 x50 -1 x3 -1 x17 >= -1 ;
-1 x40 +1 x2 >= 0 ;
-1 x40 +1 x18 >= 0 ;
+1 x40 -1 x2 -1 x18 >= -1 ;
-1 x30 +1 x1 >= 0 ;
-1 x30 +1 x19 >= 0 ;
+1 x30 -1 x1 -1 x19 >= -1 ;
+1 x754 -1 x100 = 0 ;
+2 x623 +1 x744 -1 x90 -1 x612 -1 x754 = 0 ;
+2 x613 +1 x734 -1 x80 -1 x602 -1 x744 = 0 ;
+2 x603 +1 x724 -1 x70 -1 x592 -1 x734 = 0 ;
+2 x593 +1 x714 -1 x60 -1 x582 -1 x724 = 0 ;
+2 x583 +1 x704 -1 x50 -1 x572 -1 x714 = 0 ;
+2 x573 +1 x694 -1 x40 -1 x562 -1 x704 = 0 ;
+2 x563 +1 x684 -1 x30 -1 x694 = 0 ;
+1 x684 -1 x875 = 0 ;
+1 x805 = 0 ;
-1 x179 +1 x1 >= 0 ;
-1 x179 +1 x19 >= 0 ;
+1 x179 -1 x1 -1 x19 >= -1 ;
-1 x178 +1 x2 >= 0 ;
-1 x178 +1 x18 >= 0 ;
+1 x178 -1 x2 -1 x18 >= -1 ;
-1 x177 +1 x3 >= 0 ;
-1 x177 +1 x17 >= 0 ;
+1 x177 -1 x3 -1 x17 >= -1 ;
-1 x176 +1 x4 >= 0 ;
-1 x176 +1 x16 >= 0 ;
+1 x176 -1 x4 -1 x16 >= -1 ;
-1 x175 +1 x5 >= 0 ;
-1 x175 +1 x15 >= 0 ;
+1 x175 -1 x5 -1 x15 >= -1 ;
-1 x174 +1 x6 >= 0 ;
-1 x174 +1 x14 >= 0 ;
+1 x174 -1 x6 -1 x14 >= -1 ;
-1 x173 +1 x7 >= 0 ;
-1 x173 +1 x13 >= 0 ;
+1 x173 -1 x7 -1 x13 >= -1 ;
-1 x172 +1 x8 >= 0 ;
-1 x172 +1 x12 >= 0 ;
+1 x172 -1 x8 -1 x12 >= -1 ;
+2 x278 +1 x279 -1 x174 -1 x172 -1 x173 = 0 ;
+2 x312 +1 x313 -1 x177 -1 x175 -1 x176 = 0 ;
+2 x334 +1 x335 -1 x179 -1 x178 = 0 ;
+2 x365 +1 x366 -1 x313 -1 x279 -1 x276 = 0 ;
+2 x396 +1 x397 -1 x335 -1 x310 = 0 ;
+2 x430 +1 x431 -1 x397 -1 x366 -1 x363 = 0 ;
+1 x394 -1 x459 = 0 ;
+2 x482 +1 x483 -1 x459 -1 x431 -1 x428 = 0 ;
+2 x525 +1 x526 -1 x480 -1 x483 = 0 ;
-1 x111 +1 x9 >= 0 ;
-1 x111 +1 x12 >= 0 ;
+1 x111 -1 x9 -1 x12 >= -1 ;
-1 x101 +1 x8 >= 0 ;
-1 x101 +1 x13 >= 0 ;
+1 x101 -1 x8 -1 x13 >= -1 ;
-1 x91 +1 x7 >= 0 ;
-1 x91 +1 x14 >= 0 ;
+1 x91 -1 x7 -1 x14 >= -1 ;
-1 x81 +1 x6 >= 0 ;
-1 x81 +1 x15 >= 0 ;
+1 x81 -1 x6 -1 x15 >= -1 ;
-1 x71 +1 x5 >= 0 ;
-1 x71 +1 x16 >= 0 ;
+1 x71 -1 x5 -1 x16 >= -1 ;
-1 x61 +1 x4 >= 0 ;
-1 x61 +1 x17 >= 0 ;
+1 x61 -1 x4 -1 x17 >= -1 ;
-1 x51 +1 x3 >= 0 ;
-1 x51 +1 x18 >= 0 ;
+1 x51 -1 x3 -1 x18 >= -1 ;
-1 x41 +1 x2 >= 0 ;
-1 x41 +1 x19 >= 0 ;
+1 x41 -1 x2 -1 x19 >= -1 ;
-1 x31 +1 x1 >= 0 ;
-1 x31 +1 x20 >= 0 ;
+1 x31 -1 x1 -1 x20 >= -1 ;
+1 x765 -1 x111 = 0 ;
+2 x634 +1 x755 -1 x101 -1 x623 -1 x765 = 0 ;
+2 x624 +1 x745 -1 x91 -1 x613 -1 x755 = 0 ;
+2 x614 +1 x735 -1 x81 -1 x603 -1 x745 = 0 ;
+2 x604 +1 x725 -1 x71 -1 x593 -1 x735 = 0 ;
+2 x594 +1 x715 -1 x61 -1 x583 -1 x725 = 0 ;
+2 x584 +1 x705 -1 x51 -1 x573 -1 x715 = 0 ;
+2 x574 +1 x695 -1 x41 -1 x563 -1 x705 = 0 ;
+2 x564 +1 x685 -1 x31 -1 x695 = 0 ;
+1 x685 -1 x876 = 0 ;
+1 x806 = 0 ;
-1 x188 +1 x1 >= 0 ;
-1 x188 +1 x20 >= 0 ;
+1 x188 -1 x1 -1 x20 >= -1 ;
-1 x187 +1 x2 >= 0 ;
-1 x187 +1 x19 >= 0 ;
+1 x187 -1 x2 -1 x19 >= -1 ;
-1 x186 +1 x3 >= 0 ;
-1 x186 +1 x18 >= 0 ;
+1 x186 -1 x3 -1 x18 >= -1 ;
-1 x185 +1 x4 >= 0 ;
-1 x185 +1 x17 >= 0 ;
+1 x185 -1 x4 -1 x17 >= -1 ;
-1 x184 +1 x5 >= 0 ;
-1 x184 +1 x16 >= 0 ;
+1 x184 -1 x5 -1 x16 >= -1 ;
-1 x183 +1 x6 >= 0 ;
-1 x183 +1 x15 >= 0 ;
+1 x183 -1 x6 -1 x15 >= -1 ;
-1 x182 +1 x7 >= 0 ;
-1 x182 +1 x14 >= 0 ;
+1 x182 -1 x7 -1 x14 >= -1 ;
-1 x181 +1 x8 >= 0 ;
-1 x181 +1 x13 >= 0 ;
+1 x181 -1 x8 -1 x13 >= -1 ;
-1 x180 +1 x9 >= 0 ;
-1 x180 +1 x12 >= 0 ;
+1 x180 -1 x9 -1 x12 >= -1 ;
+2 x280 +1 x281 -1 x182 -1 x180 -1 x181 = 0 ;
+2 x314 +1 x315 -1 x185 -1 x183 -1 x184 = 0 ;
+2 x336 +1 x337 -1 x188 -1 x186 -1 x187 = 0 ;
+2 x367 +1 x368 -1 x315 -1 x281 -1 x278 = 0 ;
+2 x398 +1 x399 -1 x334 -1 x312 -1 x337 = 0 ;
+2 x432 +1 x433 -1 x399 -1 x368 -1 x365 = 0 ;
+1 x396 -1 x460 = 0 ;
+2 x484 +1 x485 -1 x460 -1 x433 -1 x430 = 0 ;
+2 x527 +1 x528 -1 x482 -1 x485 = 0 ;
-1 x122 +1 x10 >= 0 ;
-1 x122 +1 x12 >= 0 ;
+1 x122 -1 x10 -1 x12 >= -1 ;
-1 x112 +1 x9 >= 0 ;
-1 x112 +1 x13 >= 0 ;
+1 x112 -1 x9 -1 x13 >= -1 ;
-1 x102 +1 x8 >= 0 ;
-1 x102 +1 x14 >= 0 ;
+1 x102 -1 x8 -1 x14 >= -1 ;
-1 x92 +1 x7 >= 0 ;
-1 x92 +1 x15 >= 0 ;
+1 x92 -1 x7 -1 x15 >= -1 ;
-1 x82 +1 x6 >= 0 ;
-1 x82 +1 x16 >= 0 ;
+1 x82 -1 x6 -1 x16 >= -1 ;
-1 x72 +1 x5 >= 0 ;
-1 x72 +1 x17 >= 0 ;
+1 x72 -1 x5 -1 x17 >= -1 ;
-1 x62 +1 x4 >= 0 ;
-1 x62 +1 x18 >= 0 ;
+1 x62 -1 x4 -1 x18 >= -1 ;
-1 x52 +1 x3 >= 0 ;
-1 x52 +1 x19 >= 0 ;
+1 x52 -1 x3 -1 x19 >= -1 ;
-1 x42 +1 x2 >= 0 ;
-1 x42 +1 x20 >= 0 ;
+1 x42 -1 x2 -1 x20 >= -1 ;
-1 x32 +1 x1 >= 0 ;
-1 x32 +1 x21 >= 0 ;
+1 x32 -1 x1 -1 x21 >= -1 ;
+1 x776 -1 x122 = 0 ;
+2 x645 +1 x766 -1 x112 -1 x634 -1 x776 = 0 ;
+2 x635 +1 x756 -1 x102 -1 x624 -1 x766 = 0 ;
+2 x625 +1 x746 -1 x92 -1 x614 -1 x756 = 0 ;
+2 x615 +1 x736 -1 x82 -1 x604 -1 x746 = 0 ;
+2 x605 +1 x726 -1 x72 -1 x594 -1 x736 = 0 ;
+2 x595 +1 x716 -1 x62 -1 x584 -1 x726 = 0 ;
+2 x585 +1 x706 -1 x52 -1 x574 -1 x716 = 0 ;
+2 x575 +1 x696 -1 x42 -1 x564 -1 x706 = 0 ;
+2 x565 +1 x686 -1 x32 -1 x696 = 0 ;
+1 x686 -1 x877 = 0 ;
+1 x807 = 0 ;
-1 x198 +1 x1 >= 0 ;
-1 x198 +1 x21 >= 0 ;
+1 x198 -1 x1 -1 x21 >= -1 ;
-1 x197 +1 x2 >= 0 ;
-1 x197 +1 x20 >= 0 ;
+1 x197 -1 x2 -1 x20 >= -1 ;
-1 x196 +1 x3 >= 0 ;
-1 x196 +1 x19 >= 0 ;
+1 x196 -1 x3 -1 x19 >= -1 ;
-1 x195 +1 x4 >= 0 ;
-1 x195 +1 x18 >= 0 ;
+1 x195 -1 x4 -1 x18 >= -1 ;
-1 x194 +1 x5 >= 0 ;
-1 x194 +1 x17 >= 0 ;
+1 x194 -1 x5 -1 x17 >= -1 ;
-1 x193 +1 x6 >= 0 ;
-1 x193 +1 x16 >= 0 ;
+1 x193 -1 x6 -1 x16 >= -1 ;
-1 x192 +1 x7 >= 0 ;
-1 x192 +1 x15 >= 0 ;
+1 x192 -1 x7 -1 x15 >= -1 ;
-1 x191 +1 x8 >= 0 ;
-1 x191 +1 x14 >= 0 ;
+1 x191 -1 x8 -1 x14 >= -1 ;
-1 x190 +1 x9 >= 0 ;
-1 x190 +1 x13 >= 0 ;
+1 x190 -1 x9 -1 x13 >= -1 ;
-1 x189 +1 x10 >= 0 ;
-1 x189 +1 x12 >= 0 ;
+1 x189 -1 x10 -1 x12 >= -1 ;
+2 x282 +1 x283 -1 x191 -1 x189 -1 x190 = 0 ;
+2 x316 +1 x317 -1 x194 -1 x192 -1 x193 = 0 ;
+2 x338 +1 x339 -1 x197 -1 x195 -1 x196 = 0 ;
+1 x198 -1 x349 = 0 ;
+2 x369 +1 x370 -1 x317 -1 x283 -1 x280 = 0 ;
+2 x400 +1 x401 -1 x336 -1 x314 -1 x339 = 0 ;
+1 x349 -1 x415 = 0 ;
+2 x434 +1 x435 -1 x401 -1 x370 -1 x367 = 0 ;
+2 x461 +1 x462 -1 x415 -1 x398 = 0 ;
+2 x486 +1 x487 -1 x462 -1 x435 -1 x432 = 0 ;
+2 x529 +1 x530 -1 x484 -1 x487 = 0 ;
-1 x133 +1 x11 >= 0 ;
-1 x133 +1 x12 >= 0 ;
+1 x133 -1 x11 -1 x12 >= -1 ;
-1 x123 +1 x10 >= 0 ;
-1 x123 +1 x13 >= 0 ;
+1 x123 -1 x10 -1 x13 >= -1 ;
-1 x113 +1 x9 >= 0 ;
-1 x113 +1 x14 >= 0 ;
+1 x113 -1 x9 -1 x14 >= -1 ;
-1 x103 +1 x8 >= 0 ;
-1 x103 +1 x15 >= 0 ;
+1 x103 -1 x8 -1 x15 >= -1 ;
-1 x93 +1 x7 >= 0 ;
-1 x93 +1 x16 >= 0 ;
+1 x93 -1 x7 -1 x16 >= -1 ;
-1 x83 +1 x6 >= 0 ;
-1 x83 +1 x17 >= 0 ;
+1 x83 -1 x6 -1 x17 >= -1 ;
-1 x73 +1 x5 >= 0 ;
-1 x73 +1 x18 >= 0 ;
+1 x73 -1 x5 -1 x18 >= -1 ;
-1 x63 +1 x4 >= 0 ;
-1 x63 +1 x19 >= 0 ;
+1 x63 -1 x4 -1 x19 >= -1 ;
-1 x53 +1 x3 >= 0 ;
-1 x53 +1 x20 >= 0 ;
+1 x53 -1 x3 -1 x20 >= -1 ;
-1 x43 +1 x2 >= 0 ;
-1 x43 +1 x21 >= 0 ;
+1 x43 -1 x2 -1 x21 >= -1 ;
-1 x33 +1 x1 >= 0 ;
-1 x33 +1 x22 >= 0 ;
+1 x33 -1 x1 -1 x22 >= -1 ;
+1 x787 -1 x133 = 0 ;
+2 x656 +1 x777 -1 x123 -1 x645 -1 x787 = 0 ;
+2 x646 +1 x767 -1 x113 -1 x635 -1 x777 = 0 ;
+2 x636 +1 x757 -1 x103 -1 x625 -1 x767 = 0 ;
+2 x626 +1 x747 -1 x93 -1 x615 -1 x757 = 0 ;
+2 x616 +1 x737 -1 x83 -1 x605 -1 x747 = 0 ;
+2 x606 +1 x727 -1 x73 -1 x595 -1 x737 = 0 ;
+2 x596 +1 x717 -1 x63 -1 x585 -1 x727 = 0 ;
+2 x586 +1 x707 -1 x53 -1 x575 -1 x717 = 0 ;
+2 x576 +1 x697 -1 x43 -1 x565 -1 x707 = 0 ;
+2 x566 +1 x687 -1 x33 -1 x697 = 0 ;
+1 x687 -1 x878 = 0 ;
+1 x808 = 0 ;
-1 x209 +1 x1 >= 0 ;
-1 x209 +1 x22 >= 0 ;
+1 x209 -1 x1 -1 x22 >= -1 ;
-1 x208 +1 x2 >= 0 ;
-1 x208 +1 x21 >= 0 ;
+1 x208 -1 x2 -1 x21 >= -1 ;
-1 x207 +1 x3 >= 0 ;
-1 x207 +1 x20 >= 0 ;
+1 x207 -1 x3 -1 x20 >= -1 ;
-1 x206 +1 x4 >= 0 ;
-1 x206 +1 x19 >= 0 ;
+1 x206 -1 x4 -1 x19 >= -1 ;
-1 x205 +1 x5 >= 0 ;
-1 x205 +1 x18 >= 0 ;
+1 x205 -1 x5 -1 x18 >= -1 ;
-1 x204 +1 x6 >= 0 ;
-1 x204 +1 x17 >= 0 ;
+1 x204 -1 x6 -1 x17 >= -1 ;
-1 x203 +1 x7 >= 0 ;
-1 x203 +1 x16 >= 0 ;
+1 x203 -1 x7 -1 x16 >= -1 ;
-1 x202 +1 x8 >= 0 ;
-1 x202 +1 x15 >= 0 ;
+1 x202 -1 x8 -1 x15 >= -1 ;
-1 x201 +1 x9 >= 0 ;
-1 x201 +1 x14 >= 0 ;
+1 x201 -1 x9 -1 x14 >= -1 ;
-1 x200 +1 x10 >= 0 ;
-1 x200 +1 x13 >= 0 ;
+1 x200 -1 x10 -1 x13 >= -1 ;
-1 x199 +1 x11 >= 0 ;
-1 x199 +1 x12 >= 0 ;
+1 x199 -1 x11 -1 x12 >= -1 ;
+2 x284 +1 x285 -1 x201 -1 x199 -1 x200 = 0 ;
+2 x318 +1 x319 -1 x204 -1 x202 -1 x203 = 0 ;
+2 x340 +1 x341 -1 x207 -1 x205 -1 x206 = 0 ;
+2 x350 +1 x351 -1 x209 -1 x208 = 0 ;
+2 x371 +1 x372 -1 x319 -1 x285 -1 x282 = 0 ;
+2 x402 +1 x403 -1 x338 -1 x316 -1 x341 = 0 ;
+1 x351 -1 x416 = 0 ;
+2 x436 +1 x437 -1 x403 -1 x372 -1 x369 = 0 ;
+2 x463 +1 x464 -1 x416 -1 x400 = 0 ;
+2 x488 +1 x489 -1 x464 -1 x437 -1 x434 = 0 ;
+1 x461 -1 x512 = 0 ;
+2 x531 +1 x532 -1 x512 -1 x489 -1 x486 = 0 ;
-1 x134 +1 x11 >= 0 ;
-1 x134 +1 x13 >= 0 ;
+1 x134 -1 x11 -1 x13 >= -1 ;
-1 x124 +1 x10 >= 0 ;
-1 x124 +1 x14 >= 0 ;
+1 x124 -1 x10 -1 x14 >= -1 ;
-1 x114 +1 x9 >= 0 ;
-1 x114 +1 x15 >= 0 ;
+1 x114 -1 x9 -1 x15 >= -1 ;
-1 x104 +1 x8 >= 0 ;
-1 x104 +1 x16 >= 0 ;
+1 x104 -1 x8 -1 x16 >= -1 ;
-1 x94 +1 x7 >= 0 ;
-1 x94 +1 x17 >= 0 ;
+1 x94 -1 x7 -1 x17 >= -1 ;
-1 x84 +1 x6 >= 0 ;
-1 x84 +1 x18 >= 0 ;
+1 x84 -1 x6 -1 x18 >= -1 ;
-1 x74 +1 x5 >= 0 ;
-1 x74 +1 x19 >= 0 ;
+1 x74 -1 x5 -1 x19 >= -1 ;
-1 x64 +1 x4 >= 0 ;
-1 x64 +1 x20 >= 0 ;
+1 x64 -1 x4 -1 x20 >= -1 ;
-1 x54 +1 x3 >= 0 ;
-1 x54 +1 x21 >= 0 ;
+1 x54 -1 x3 -1 x21 >= -1 ;
-1 x44 +1 x2 >= 0 ;
-1 x44 +1 x22 >= 0 ;
+1 x44 -1 x2 -1 x22 >= -1 ;
+2 x667 +1 x788 -1 x134 -1 x656 = 0 ;
+2 x657 +1 x778 -1 x124 -1 x646 -1 x788 = 0 ;
+2 x647 +1 x768 -1 x114 -1 x636 -1 x778 = 0 ;
+2 x637 +1 x758 -1 x104 -1 x626 -1 x768 = 0 ;
+2 x627 +1 x748 -1 x94 -1 x616 -1 x758 = 0 ;
+2 x617 +1 x738 -1 x84 -1 x606 -1 x748 = 0 ;
+2 x607 +1 x728 -1 x74 -1 x596 -1 x738 = 0 ;
+2 x597 +1 x718 -1 x64 -1 x586 -1 x728 = 0 ;
+2 x587 +1 x708 -1 x54 -1 x576 -1 x718 = 0 ;
+2 x577 +1 x698 -1 x44 -1 x566 -1 x708 = 0 ;
+1 x698 -1 x879 = 0 ;
+1 x809 = 0 ;
-1 x219 +1 x2 >= 0 ;
-1 x219 +1 x22 >= 0 ;
+1 x219 -1 x2 -1 x22 >= -1 ;
-1 x218 +1 x3 >= 0 ;
-1 x218 +1 x21 >= 0 ;
+1 x218 -1 x3 -1 x21 >= -1 ;
-1 x217 +1 x4 >= 0 ;
-1 x217 +1 x20 >= 0 ;
+1 x217 -1 x4 -1 x20 >= -1 ;
-1 x216 +1 x5 >= 0 ;
-1 x216 +1 x19 >= 0 ;
+1 x216 -1 x5 -1 x19 >= -1 ;
-1 x215 +1 x6 >= 0 ;
-1 x215 +1 x18 >= 0 ;
+1 x215 -1 x6 -1 x18 >= -1 ;
-1 x214 +1 x7 >= 0 ;
-1 x214 +1 x17 >= 0 ;
+1 x214 -1 x7 -1 x17 >= -1 ;
-1 x213 +1 x8 >= 0 ;
-1 x213 +1 x16 >= 0 ;
+1 x213 -1 x8 -1 x16 >= -1 ;
-1 x212 +1 x9 >= 0 ;
-1 x212 +1 x15 >= 0 ;
+1 x212 -1 x9 -1 x15 >= -1 ;
-1 x211 +1 x10 >= 0 ;
-1 x211 +1 x14 >= 0 ;
+1 x211 -1 x10 -1 x14 >= -1 ;
-1 x210 +1 x11 >= 0 ;
-1 x210 +1 x13 >= 0 ;
+1 x210 -1 x11 -1 x13 >= -1 ;
+2 x286 +1 x287 -1 x212 -1 x210 -1 x211 = 0 ;
+2 x320 +1 x321 -1 x215 -1 x213 -1 x214 = 0 ;
+2 x342 +1 x343 -1 x218 -1 x216 -1 x217 = 0 ;
+1 x219 -1 x352 = 0 ;
+2 x373 +1 x374 -1 x321 -1 x287 -1 x284 = 0 ;
+2 x404 +1 x405 -1 x340 -1 x318 -1 x343 = 0 ;
+2 x417 +1 x418 -1 x350 -1 x352 = 0 ;
+2 x438 +1 x439 -1 x405 -1 x374 -1 x371 = 0 ;
+2 x465 +1 x466 -1 x418 -1 x402 = 0 ;
+2 x490 +1 x491 -1 x466 -1 x439 -1 x436 = 0 ;
+1 x463 -1 x513 = 0 ;
+2 x533 +1 x534 -1 x513 -1 x491 -1 x488 = 0 ;
-1 x135 +1 x11 >= 0 ;
-1 x135 +1 x14 >= 0 ;
+1 x135 -1 x11 -1 x14 >= -1 ;
-1 x125 +1 x10 >= 0 ;
-1 x125 +1 x15 >= 0 ;
+1 x125 -1 x10 -1 x15 >= -1 ;
-1 x115 +1 x9 >= 0 ;
-1 x115 +1 x16 >= 0 ;
+1 x115 -1 x9 -1 x16 >= -1 ;
-1 x105 +1 x8 >= 0 ;
-1 x105 +1 x17 >= 0 ;
+1 x105 -1 x8 -1 x17 >= -1 ;
-1 x95 +1 x7 >= 0 ;
-1 x95 +1 x18 >= 0 ;
+1 x95 -1 x7 -1 x18 >= -1 ;
-1 x85 +1 x6 >= 0 ;
-1 x85 +1 x19 >= 0 ;
+1 x85 -1 x6 -1 x19 >= -1 ;
-1 x75 +1 x5 >= 0 ;
-1 x75 +1 x20 >= 0 ;
+1 x75 -1 x5 -1 x20 >= -1 ;
-1 x65 +1 x4 >= 0 ;
-1 x65 +1 x21 >= 0 ;
+1 x65 -1 x4 -1 x21 >= -1 ;
-1 x55 +1 x3 >= 0 ;
-1 x55 +1 x22 >= 0 ;
+1 x55 -1 x3 -1 x22 >= -1 ;
+2 x668 +1 x789 -1 x135 -1 x657 -1 x667 = 0 ;
+2 x658 +1 x779 -1 x125 -1 x647 -1 x789 = 0 ;
+2 x648 +1 x769 -1 x115 -1 x637 -1 x779 = 0 ;
+2 x638 +1 x759 -1 x105 -1 x627 -1 x769 = 0 ;
+2 x628 +1 x749 -1 x95 -1 x617 -1 x759 = 0 ;
+2 x618 +1 x739 -1 x85 -1 x607 -1 x749 = 0 ;
+2 x608 +1 x729 -1 x75 -1 x597 -1 x739 = 0 ;
+2 x598 +1 x719 -1 x65 -1 x587 -1 x729 = 0 ;
+2 x588 +1 x709 -1 x55 -1 x577 -1 x719 = 0 ;
+1 x709 -1 x880 = 0 ;
+1 x810 = 0 ;
-1 x228 +1 x3 >= 0 ;
-1 x228 +1 x22 >= 0 ;
+1 x228 -1 x3 -1 x22 >= -1 ;
-1 x227 +1 x4 >= 0 ;
-1 x227 +1 x21 >= 0 ;
+1 x227 -1 x4 -1 x21 >= -1 ;
-1 x226 +1 x5 >= 0 ;
-1 x226 +1 x20 >= 0 ;
+1 x226 -1 x5 -1 x20 >= -1 ;
-1 x225 +1 x6 >= 0 ;
-1 x225 +1 x19 >= 0 ;
+1 x225 -1 x6 -1 x19 >= -1 ;
-1 x224 +1 x7 >= 0 ;
-1 x224 +1 x18 >= 0 ;
+1 x224 -1 x7 -1 x18 >= -1 ;
-1 x223 +1 x8 >= 0 ;
-1 x223 +1 x17 >= 0 ;
+1 x223 -1 x8 -1 x17 >= -1 ;
-1 x222 +1 x9 >= 0 ;
-1 x222 +1 x16 >= 0 ;
+1 x222 -1 x9 -1 x16 >= -1 ;
-1 x221 +1 x10 >= 0 ;
-1 x221 +1 x15 >= 0 ;
+1 x221 -1 x10 -1 x15 >= -1 ;
-1 x220 +1 x11 >= 0 ;
-1 x220 +1 x14 >= 0 ;
+1 x220 -1 x11 -1 x14 >= -1 ;
+2 x288 +1 x289 -1 x222 -1 x220 -1 x221 = 0 ;
+2 x322 +1 x323 -1 x225 -1 x223 -1 x224 = 0 ;
+2 x344 +1 x345 -1 x228 -1 x226 -1 x227 = 0 ;
+2 x375 +1 x376 -1 x323 -1 x289 -1 x286 = 0 ;
+2 x406 +1 x407 -1 x342 -1 x320 -1 x345 = 0 ;
+2 x440 +1 x441 -1 x407 -1 x376 -1 x373 = 0 ;
+2 x467 +1 x468 -1 x417 -1 x404 = 0 ;
+2 x492 +1 x493 -1 x468 -1 x441 -1 x438 = 0 ;
+1 x465 -1 x514 = 0 ;
+2 x535 +1 x536 -1 x514 -1 x493 -1 x490 = 0 ;
-1 x136 +1 x11 >= 0 ;
-1 x136 +1 x15 >= 0 ;
+1 x136 -1 x11 -1 x15 >= -1 ;
-1 x126 +1 x10 >= 0 ;
-1 x126 +1 x16 >= 0 ;
+1 x126 -1 x10 -1 x16 >= -1 ;
-1 x116 +1 x9 >= 0 ;
-1 x116 +1 x17 >= 0 ;
+1 x116 -1 x9 -1 x17 >= -1 ;
-1 x106 +1 x8 >= 0 ;
-1 x106 +1 x18 >= 0 ;
+1 x106 -1 x8 -1 x18 >= -1 ;
-1 x96 +1 x7 >= 0 ;
-1 x96 +1 x19 >= 0 ;
+1 x96 -1 x7 -1 x19 >= -1 ;
-1 x86 +1 x6 >= 0 ;
-1 x86 +1 x20 >= 0 ;
+1 x86 -1 x6 -1 x20 >= -1 ;
-1 x76 +1 x5 >= 0 ;
-1 x76 +1 x21 >= 0 ;
+1 x76 -1 x5 -1 x21 >= -1 ;
-1 x66 +1 x4 >= 0 ;
-1 x66 +1 x22 >= 0 ;
+1 x66 -1 x4 -1 x22 >= -1 ;
+2 x669 +1 x790 -1 x136 -1 x658 -1 x668 = 0 ;
+2 x659 +1 x780 -1 x126 -1 x648 -1 x790 = 0 ;
+2 x649 +1 x770 -1 x116 -1 x638 -1 x780 = 0 ;
+2 x639 +1 x760 -1 x106 -1 x628 -1 x770 = 0 ;
+2 x629 +1 x750 -1 x96 -1 x618 -1 x760 = 0 ;
+2 x619 +1 x740 -1 x86 -1 x608 -1 x750 = 0 ;
+2 x609 +1 x730 -1 x76 -1 x598 -1 x740 = 0 ;
+2 x599 +1 x720 -1 x66 -1 x588 -1 x730 = 0 ;
+1 x720 -1 x881 = 0 ;
+1 x811 = 0 ;
-1 x236 +1 x4 >= 0 ;
-1 x236 +1 x22 >= 0 ;
+1 x236 -1 x4 -1 x22 >= -1 ;
-1 x235 +1 x5 >= 0 ;
-1 x235 +1 x21 >= 0 ;
+1 x235 -1 x5 -1 x21 >= -1 ;
-1 x234 +1 x6 >= 0 ;
-1 x234 +1 x20 >= 0 ;
+1 x234 -1 x6 -1 x20 >= -1 ;
-1 x233 +1 x7 >= 0 ;
-1 x233 +1 x19 >= 0 ;
+1 x233 -1 x7 -1 x19 >= -1 ;
-1 x232 +1 x8 >= 0 ;
-1 x232 +1 x18 >= 0 ;
+1 x232 -1 x8 -1 x18 >= -1 ;
-1 x231 +1 x9 >= 0 ;
-1 x231 +1 x17 >= 0 ;
+1 x231 -1 x9 -1 x17 >= -1 ;
-1 x230 +1 x10 >= 0 ;
-1 x230 +1 x16 >= 0 ;
+1 x230 -1 x10 -1 x16 >= -1 ;
-1 x229 +1 x11 >= 0 ;
-1 x229 +1 x15 >= 0 ;
+1 x229 -1 x11 -1 x15 >= -1 ;
+2 x290 +1 x291 -1 x231 -1 x229 -1 x230 = 0 ;
+2 x324 +1 x325 -1 x234 -1 x232 -1 x233 = 0 ;
+2 x346 +1 x347 -1 x236 -1 x235 = 0 ;
+2 x377 +1 x378 -1 x325 -1 x291 -1 x288 = 0 ;
+2 x408 +1 x409 -1 x344 -1 x322 -1 x347 = 0 ;
+2 x442 +1 x443 -1 x409 -1 x378 -1 x375 = 0 ;
+1 x406 -1 x469 = 0 ;
+2 x494 +1 x495 -1 x469 -1 x443 -1 x440 = 0 ;
+1 x467 -1 x515 = 0 ;
+2 x537 +1 x538 -1 x515 -1 x495 -1 x492 = 0 ;
-1 x137 +1 x11 >= 0 ;
-1 x137 +1 x16 >= 0 ;
+1 x137 -1 x11 -1 x16 >= -1 ;
-1 x127 +1 x10 >= 0 ;
-1 x127 +1 x17 >= 0 ;
+1 x127 -1 x10 -1 x17 >= -1 ;
-1 x117 +1 x9 >= 0 ;
-1 x117 +1 x18 >= 0 ;
+1 x117 -1 x9 -1 x18 >= -1 ;
-1 x107 +1 x8 >= 0 ;
-1 x107 +1 x19 >= 0 ;
+1 x107 -1 x8 -1 x19 >= -1 ;
-1 x97 +1 x7 >= 0 ;
-1 x97 +1 x20 >= 0 ;
+1 x97 -1 x7 -1 x20 >= -1 ;
-1 x87 +1 x6 >= 0 ;
-1 x87 +1 x21 >= 0 ;
+1 x87 -1 x6 -1 x21 >= -1 ;
-1 x77 +1 x5 >= 0 ;
-1 x77 +1 x22 >= 0 ;
+1 x77 -1 x5 -1 x22 >= -1 ;
+2 x670 +1 x791 -1 x137 -1 x659 -1 x669 = 0 ;
+2 x660 +1 x781 -1 x127 -1 x649 -1 x791 = 0 ;
+2 x650 +1 x771 -1 x117 -1 x639 -1 x781 = 0 ;
+2 x640 +1 x761 -1 x107 -1 x629 -1 x771 = 0 ;
+2 x630 +1 x751 -1 x97 -1 x619 -1 x761 = 0 ;
+2 x620 +1 x741 -1 x87 -1 x609 -1 x751 = 0 ;
+2 x610 +1 x731 -1 x77 -1 x599 -1 x741 = 0 ;
+1 x731 -1 x882 = 0 ;
+1 x812 = 0 ;
-1 x243 +1 x5 >= 0 ;
-1 x243 +1 x22 >= 0 ;
+1 x243 -1 x5 -1 x22 >= -1 ;
-1 x242 +1 x6 >= 0 ;
-1 x242 +1 x21 >= 0 ;
+1 x242 -1 x6 -1 x21 >= -1 ;
-1 x241 +1 x7 >= 0 ;
-1 x241 +1 x20 >= 0 ;
+1 x241 -1 x7 -1 x20 >= -1 ;
-1 x240 +1 x8 >= 0 ;
-1 x240 +1 x19 >= 0 ;
+1 x240 -1 x8 -1 x19 >= -1 ;
-1 x239 +1 x9 >= 0 ;
-1 x239 +1 x18 >= 0 ;
+1 x239 -1 x9 -1 x18 >= -1 ;
-1 x238 +1 x10 >= 0 ;
-1 x238 +1 x17 >= 0 ;
+1 x238 -1 x10 -1 x17 >= -1 ;
-1 x237 +1 x11 >= 0 ;
-1 x237 +1 x16 >= 0 ;
+1 x237 -1 x11 -1 x16 >= -1 ;
+2 x292 +1 x293 -1 x239 -1 x237 -1 x238 = 0 ;
+2 x326 +1 x327 -1 x242 -1 x240 -1 x241 = 0 ;
+1 x243 -1 x348 = 0 ;
+2 x379 +1 x380 -1 x327 -1 x293 -1 x290 = 0 ;
+2 x410 +1 x411 -1 x346 -1 x324 -1 x348 = 0 ;
+2 x444 +1 x445 -1 x411 -1 x380 -1 x377 = 0 ;
+1 x408 -1 x470 = 0 ;
+2 x496 +1 x497 -1 x470 -1 x445 -1 x442 = 0 ;
+2 x539 +1 x540 -1 x494 -1 x497 = 0 ;
-1 x138 +1 x11 >= 0 ;
-1 x138 +1 x17 >= 0 ;
+1 x138 -1 x11 -1 x17 >= -1 ;
-1 x128 +1 x10 >= 0 ;
-1 x128 +1 x18 >= 0 ;
+1 x128 -1 x10 -1 x18 >= -1 ;
-1 x118 +1 x9 >= 0 ;
-1 x118 +1 x19 >= 0 ;
+1 x118 -1 x9 -1 x19 >= -1 ;
-1 x108 +1 x8 >= 0 ;
-1 x108 +1 x20 >= 0 ;
+1 x108 -1 x8 -1 x20 >= -1 ;
-1 x98 +1 x7 >= 0 ;
-1 x98 +1 x21 >= 0 ;
+1 x98 -1 x7 -1 x21 >= -1 ;
-1 x88 +1 x6 >= 0 ;
-1 x88 +1 x22 >= 0 ;
+1 x88 -1 x6 -1 x22 >= -1 ;
+2 x671 +1 x792 -1 x138 -1 x660 -1 x670 = 0 ;
+2 x661 +1 x782 -1 x128 -1 x650 -1 x792 = 0 ;
+2 x651 +1 x772 -1 x118 -1 x640 -1 x782 = 0 ;
+2 x641 +1 x762 -1 x108 -1 x630 -1 x772 = 0 ;
+2 x631 +1 x752 -1 x98 -1 x620 -1 x762 = 0 ;
+2 x621 +1 x742 -1 x88 -1 x610 -1 x752 = 0 ;
+1 x742 -1 x883 = 0 ;
+1 x813 = 0 ;
-1 x249 +1 x6 >= 0 ;
-1 x249 +1 x22 >= 0 ;
+1 x249 -1 x6 -1 x22 >= -1 ;
-1 x248 +1 x7 >= 0 ;
-1 x248 +1 x21 >= 0 ;
+1 x248 -1 x7 -1 x21 >= -1 ;
-1 x247 +1 x8 >= 0 ;
-1 x247 +1 x20 >= 0 ;
+1 x247 -1 x8 -1 x20 >= -1 ;
-1 x246 +1 x9 >= 0 ;
-1 x246 +1 x19 >= 0 ;
+1 x246 -1 x9 -1 x19 >= -1 ;
-1 x245 +1 x10 >= 0 ;
-1 x245 +1 x18 >= 0 ;
+1 x245 -1 x10 -1 x18 >= -1 ;
-1 x244 +1 x11 >= 0 ;
-1 x244 +1 x17 >= 0 ;
+1 x244 -1 x11 -1 x17 >= -1 ;
+2 x294 +1 x295 -1 x246 -1 x244 -1 x245 = 0 ;
+2 x328 +1 x329 -1 x249 -1 x247 -1 x248 = 0 ;
+2 x381 +1 x382 -1 x329 -1 x295 -1 x292 = 0 ;
+1 x326 -1 x412 = 0 ;
+2 x446 +1 x447 -1 x412 -1 x382 -1 x379 = 0 ;
+1 x410 -1 x471 = 0 ;
+2 x498 +1 x499 -1 x471 -1 x447 -1 x444 = 0 ;
+2 x541 +1 x542 -1 x496 -1 x499 = 0 ;
-1 x139 +1 x11 >= 0 ;
-1 x139 +1 x18 >= 0 ;
+1 x139 -1 x11 -1 x18 >= -1 ;
-1 x129 +1 x10 >= 0 ;
-1 x129 +1 x19 >= 0 ;
+1 x129 -1 x10 -1 x19 >= -1 ;
-1 x119 +1 x9 >= 0 ;
-1 x119 +1 x20 >= 0 ;
+1 x119 -1 x9 -1 x20 >= -1 ;
-1 x109 +1 x8 >= 0 ;
-1 x109 +1 x21 >= 0 ;
+1 x109 -1 x8 -1 x21 >= -1 ;
-1 x99 +1 x7 >= 0 ;
-1 x99 +1 x22 >= 0 ;
+1 x99 -1 x7 -1 x22 >= -1 ;
+2 x672 +1 x793 -1 x139 -1 x661 -1 x671 = 0 ;
+2 x662 +1 x783 -1 x129 -1 x651 -1 x793 = 0 ;
+2 x652 +1 x773 -1 x119 -1 x641 -1 x783 = 0 ;
+2 x642 +1 x763 -1 x109 -1 x631 -1 x773 = 0 ;
+2 x632 +1 x753 -1 x99 -1 x621 -1 x763 = 0 ;
+1 x753 -1 x884 = 0 ;
+1 x814 = 0 ;
-1 x254 +1 x7 >= 0 ;
-1 x254 +1 x22 >= 0 ;
+1 x254 -1 x7 -1 x22 >= -1 ;
-1 x253 +1 x8 >= 0 ;
-1 x253 +1 x21 >= 0 ;
+1 x253 -1 x8 -1 x21 >= -1 ;
-1 x252 +1 x9 >= 0 ;
-1 x252 +1 x20 >= 0 ;
+1 x252 -1 x9 -1 x20 >= -1 ;
-1 x251 +1 x10 >= 0 ;
-1 x251 +1 x19 >= 0 ;
+1 x251 -1 x10 -1 x19 >= -1 ;
-1 x250 +1 x11 >= 0 ;
-1 x250 +1 x18 >= 0 ;
+1 x250 -1 x11 -1 x18 >= -1 ;
+2 x296 +1 x297 -1 x252 -1 x250 -1 x251 = 0 ;
+2 x330 +1 x331 -1 x254 -1 x253 = 0 ;
+2 x383 +1 x384 -1 x331 -1 x297 -1 x294 = 0 ;
+1 x328 -1 x413 = 0 ;
+2 x448 +1 x449 -1 x413 -1 x384 -1 x381 = 0 ;
+2 x500 +1 x501 -1 x446 -1 x449 = 0 ;
+2 x543 +1 x544 -1 x498 -1 x501 = 0 ;
-1 x140 +1 x11 >= 0 ;
-1 x140 +1 x19 >= 0 ;
+1 x140 -1 x11 -1 x19 >= -1 ;
-1 x130 +1 x10 >= 0 ;
-1 x130 +1 x20 >= 0 ;
+1 x130 -1 x10 -1 x20 >= -1 ;
-1 x120 +1 x9 >= 0 ;
-1 x120 +1 x21 >= 0 ;
+1 x120 -1 x9 -1 x21 >= -1 ;
-1 x110 +1 x8 >= 0 ;
-1 x110 +1 x22 >= 0 ;
+1 x110 -1 x8 -1 x22 >= -1 ;
+2 x673 +1 x794 -1 x140 -1 x662 -1 x672 = 0 ;
+2 x663 +1 x784 -1 x130 -1 x652 -1 x794 = 0 ;
+2 x653 +1 x774 -1 x120 -1 x642 -1 x784 = 0 ;
+2 x643 +1 x764 -1 x110 -1 x632 -1 x774 = 0 ;
+1 x764 -1 x885 = 0 ;
+1 x815 = 0 ;
-1 x258 +1 x8 >= 0 ;
-1 x258 +1 x22 >= 0 ;
+1 x258 -1 x8 -1 x22 >= -1 ;
-1 x257 +1 x9 >= 0 ;
-1 x257 +1 x21 >= 0 ;
+1 x257 -1 x9 -1 x21 >= -1 ;
-1 x256 +1 x10 >= 0 ;
-1 x256 +1 x20 >= 0 ;
+1 x256 -1 x10 -1 x20 >= -1 ;
-1 x255 +1 x11 >= 0 ;
-1 x255 +1 x19 >= 0 ;
+1 x255 -1 x11 -1 x19 >= -1 ;
+2 x298 +1 x299 -1 x257 -1 x255 -1 x256 = 0 ;
+1 x258 -1 x332 = 0 ;
+2 x385 +1 x386 -1 x332 -1 x299 -1 x296 = 0 ;
+1 x330 -1 x414 = 0 ;
+2 x450 +1 x451 -1 x414 -1 x386 -1 x383 = 0 ;
+2 x502 +1 x503 -1 x448 -1 x451 = 0 ;
+2 x545 +1 x546 -1 x500 -1 x503 = 0 ;
-1 x141 +1 x11 >= 0 ;
-1 x141 +1 x20 >= 0 ;
+1 x141 -1 x11 -1 x20 >= -1 ;
-1 x131 +1 x10 >= 0 ;
-1 x131 +1 x21 >= 0 ;
+1 x131 -1 x10 -1 x21 >= -1 ;
-1 x121 +1 x9 >= 0 ;
-1 x121 +1 x22 >= 0 ;
+1 x121 -1 x9 -1 x22 >= -1 ;
+2 x674 +1 x795 -1 x141 -1 x663 -1 x673 = 0 ;
+2 x664 +1 x785 -1 x131 -1 x653 -1 x795 = 0 ;
+2 x654 +1 x775 -1 x121 -1 x643 -1 x785 = 0 ;
+1 x775 -1 x886 = 0 ;
+1 x816 = 0 ;
-1 x261 +1 x9 >= 0 ;
-1 x261 +1 x22 >= 0 ;
+1 x261 -1 x9 -1 x22 >= -1 ;
-1 x260 +1 x10 >= 0 ;
-1 x260 +1 x21 >= 0 ;
+1 x260 -1 x10 -1 x21 >= -1 ;
-1 x259 +1 x11 >= 0 ;
-1 x259 +1 x20 >= 0 ;
+1 x259 -1 x11 -1 x20 >= -1 ;
+2 x300 +1 x301 -1 x261 -1 x259 -1 x260 = 0 ;
+2 x387 +1 x388 -1 x298 -1 x301 = 0 ;
+2 x452 +1 x453 -1 x385 -1 x388 = 0 ;
+2 x504 +1 x505 -1 x450 -1 x453 = 0 ;
+2 x547 +1 x548 -1 x502 -1 x505 = 0 ;
-1 x142 +1 x11 >= 0 ;
-1 x142 +1 x21 >= 0 ;
+1 x142 -1 x11 -1 x21 >= -1 ;
-1 x132 +1 x10 >= 0 ;
-1 x132 +1 x22 >= 0 ;
+1 x132 -1 x10 -1 x22 >= -1 ;
+2 x675 +1 x796 -1 x142 -1 x664 -1 x674 = 0 ;
+2 x665 +1 x786 -1 x132 -1 x654 -1 x796 = 0 ;
+1 x786 -1 x887 = 0 ;
+1 x817 = 0 ;
-1 x263 +1 x10 >= 0 ;
-1 x263 +1 x22 >= 0 ;
+1 x263 -1 x10 -1 x22 >= -1 ;
-1 x262 +1 x11 >= 0 ;
-1 x262 +1 x21 >= 0 ;
+1 x262 -1 x11 -1 x21 >= -1 ;
+2 x302 +1 x303 -1 x263 -1 x262 = 0 ;
+2 x389 +1 x390 -1 x300 -1 x303 = 0 ;
+2 x454 +1 x455 -1 x387 -1 x390 = 0 ;
+2 x506 +1 x507 -1 x452 -1 x455 = 0 ;
+2 x549 +1 x550 -1 x504 -1 x507 = 0 ;
-1 x143 +1 x11 >= 0 ;
-1 x143 +1 x22 >= 0 ;
+1 x143 -1 x11 -1 x22 >= -1 ;
+2 x676 +1 x797 -1 x143 -1 x665 -1 x675 = 0 ;
+1 x797 -1 x888 = 0 ;
+1 x818 = 0 ;
-1 x264 +1 x11 >= 0 ;
-1 x264 +1 x22 >= 0 ;
+1 x264 -1 x11 -1 x22 >= -1 ;
+1 x264 -1 x304 = 0 ;
+2 x391 +1 x392 -1 x302 -1 x304 = 0 ;
+2 x456 +1 x457 -1 x389 -1 x392 = 0 ;
+2 x508 +1 x509 -1 x454 -1 x457 = 0 ;
+2 x551 +1 x552 -1 x506 -1 x509 = 0 ;
+1 x676 -1 x889 = 0 ;
+1 x819 = 0 ;
+1 x391 -1 x458 = 0 ;
+2 x510 +1 x511 -1 x456 -1 x458 = 0 ;
+2 x553 +1 x554 -1 x508 -1 x511 = 0 ;
+1 x510 -1 x555 = 0 ;
